Welcome to the CBC MILP Solver 
Version: 2.10.12 
Build Date: Aug 20 2024 

command line - /opt/homebrew/bin/cbc computational_data/lp/ER_n20_p035_s3.lp seconds 10.0 solve solu computational_data/solutions/ER_n20_p035_s3.sol (default strategy 1)
seconds was changed from 1e+100 to 10
Continuous objective value is 5.02875 - 0.00 seconds
Cgl0003I 0 fixed, 0 tightened bounds, 48 strengthened rows, 0 substitutions
Cgl0003I 0 fixed, 0 tightened bounds, 45 strengthened rows, 0 substitutions
Cgl0003I 0 fixed, 0 tightened bounds, 21 strengthened rows, 0 substitutions
Cgl0003I 0 fixed, 0 tightened bounds, 4 strengthened rows, 0 substitutions
Cgl0003I 0 fixed, 0 tightened bounds, 4 strengthened rows, 0 substitutions
Cgl0004I processed model has 136 rows, 40 columns (40 integer (40 of which binary)) and 618 elements
Cutoff increment increased from 1e-05 to 0.9999
Cbc0038I Initial state - 26 integers unsatisfied sum - 5.02875
Cbc0038I Pass   1: suminf.    5.03024 (25) obj. 5.03024 iterations 1
Cbc0038I Pass   2: suminf.   10.50000 (21) obj. 10.5 iterations 42
Cbc0038I Pass   3: suminf.    0.00000 (0) obj. 8 iterations 33
Cbc0038I Solution found of 8
Cbc0038I Before mini branch and bound, 13 integers at bound fixed and 0 continuous
Cbc0038I Full problem 136 rows 40 columns, reduced to 106 rows 27 columns
Cbc0038I Mini branch and bound improved solution from 8 to 7 (0.01 seconds)
Cbc0038I Round again with cutoff of 5.90297
Cbc0038I Pass   4: suminf.    5.03024 (25) obj. 5.03024 iterations 0
Cbc0038I Pass   5: suminf.    5.55333 (17) obj. 5.90297 iterations 35
Cbc0038I Pass   6: suminf.    4.60946 (19) obj. 5.90297 iterations 26
Cbc0038I Pass   7: suminf.    3.54897 (21) obj. 5.90297 iterations 13
Cbc0038I Pass   8: suminf.    2.79245 (15) obj. 5.90297 iterations 18
Cbc0038I Pass   9: suminf.    4.05814 (18) obj. 5.90297 iterations 37
Cbc0038I Pass  10: suminf.    3.72809 (17) obj. 5.90297 iterations 16
Cbc0038I Pass  11: suminf.    5.20826 (21) obj. 5.90297 iterations 24
Cbc0038I Pass  12: suminf.    4.30219 (21) obj. 5.90297 iterations 24
Cbc0038I Pass  13: suminf.    5.63432 (18) obj. 5.90297 iterations 30
Cbc0038I Pass  14: suminf.    4.91667 (22) obj. 5.47222 iterations 17
Cbc0038I Pass  15: suminf.    5.00000 (17) obj. 5.90297 iterations 33
Cbc0038I Pass  16: suminf.    3.64927 (22) obj. 5.90297 iterations 18
Cbc0038I Pass  17: suminf.    2.91963 (18) obj. 5.90297 iterations 15
Cbc0038I Pass  18: suminf.    5.02238 (19) obj. 5.90297 iterations 31
Cbc0038I Pass  19: suminf.    2.77089 (18) obj. 5.90297 iterations 25
Cbc0038I Pass  20: suminf.    5.03732 (19) obj. 5.90297 iterations 44
Cbc0038I Pass  21: suminf.    3.08692 (20) obj. 5.90297 iterations 15
Cbc0038I Pass  22: suminf.    2.70581 (19) obj. 5.90297 iterations 9
Cbc0038I Pass  23: suminf.    4.58361 (21) obj. 5.90297 iterations 35
Cbc0038I Pass  24: suminf.    2.77089 (18) obj. 5.90297 iterations 29
Cbc0038I Pass  25: suminf.    5.03732 (19) obj. 5.90297 iterations 41
Cbc0038I Pass  26: suminf.    3.08692 (20) obj. 5.90297 iterations 15
Cbc0038I Pass  27: suminf.    2.70581 (19) obj. 5.90297 iterations 9
Cbc0038I Pass  28: suminf.    5.57288 (23) obj. 5.90297 iterations 35
Cbc0038I Pass  29: suminf.    4.82609 (21) obj. 5.43478 iterations 28
Cbc0038I Pass  30: suminf.    4.00210 (22) obj. 5.90297 iterations 21
Cbc0038I Pass  31: suminf.    3.92406 (24) obj. 5.90297 iterations 11
Cbc0038I Pass  32: suminf.    5.65297 (16) obj. 5.90297 iterations 31
Cbc0038I Pass  33: suminf.    5.18485 (19) obj. 5.90297 iterations 15
Cbc0038I No solution found this major pass
Cbc0038I Before mini branch and bound, 0 integers at bound fixed and 0 continuous
Cbc0038I Full problem 136 rows 40 columns, reduced to 136 rows 40 columns - 3 fixed gives 59, 21 - ok now
Cbc0038I Mini branch and bound did not improve solution (0.02 seconds)
Cbc0038I After 0.02 seconds - Feasibility pump exiting with objective of 7 - took 0.01 seconds
Cbc0012I Integer solution of 7 found by feasibility pump after 0 iterations and 0 nodes (0.02 seconds)
Cbc0038I Full problem 136 rows 40 columns, reduced to 103 rows 26 columns
Cbc0031I 5 added rows had average density of 30.4
Cbc0013I At root node, 5 cuts changed objective from 5.028754 to 5.99999 in 100 passes
Cbc0014I Cut generator 0 (Probing) - 2 row cuts average 6.5 elements, 0 column cuts (0 active)  in 0.012 seconds - new frequency is -100
Cbc0014I Cut generator 1 (Gomory) - 842 row cuts average 39.3 elements, 0 column cuts (0 active)  in 0.011 seconds - new frequency is 1
Cbc0014I Cut generator 2 (Knapsack) - 0 row cuts average 0.0 elements, 0 column cuts (0 active)  in 0.006 seconds - new frequency is -100
Cbc0014I Cut generator 3 (Clique) - 0 row cuts average 0.0 elements, 0 column cuts (0 active)  in 0.002 seconds - new frequency is -100
Cbc0014I Cut generator 4 (MixedIntegerRounding2) - 7 row cuts average 37.0 elements, 0 column cuts (0 active)  in 0.008 seconds - new frequency is -100
Cbc0014I Cut generator 5 (FlowCover) - 0 row cuts average 0.0 elements, 0 column cuts (0 active)  in 0.001 seconds - new frequency is -100
Cbc0010I After 0 nodes, 1 on tree, 7 best solution, best possible 5.99999 (0.10 seconds)
Cbc0001I Search completed - best objective 7, took 3533 iterations and 12 nodes (0.14 seconds)
Cbc0032I Strong branching done 216 times (3933 iterations), fathomed 2 nodes and fixed 6 variables
Cbc0035I Maximum depth 3, 0 variables fixed on reduced cost
Cuts at root node changed objective from 5.02875 to 5.99999
Probing was tried 100 times and created 2 cuts of which 0 were active after adding rounds of cuts (0.012 seconds)
Gomory was tried 127 times and created 1023 cuts of which 0 were active after adding rounds of cuts (0.013 seconds)
Knapsack was tried 100 times and created 0 cuts of which 0 were active after adding rounds of cuts (0.006 seconds)
Clique was tried 100 times and created 0 cuts of which 0 were active after adding rounds of cuts (0.002 seconds)
MixedIntegerRounding2 was tried 100 times and created 7 cuts of which 0 were active after adding rounds of cuts (0.008 seconds)
FlowCover was tried 100 times and created 0 cuts of which 0 were active after adding rounds of cuts (0.001 seconds)
TwoMirCuts was tried 1 times and created 0 cuts of which 0 were active after adding rounds of cuts (0.000 seconds)
ZeroHalf was tried 1 times and created 0 cuts of which 0 were active after adding rounds of cuts (0.000 seconds)

Result - Optimal solution found

Objective value:                7.00000000
Enumerated nodes:               12
Total iterations:               3533
Time (CPU seconds):             0.15
Time (Wallclock seconds):       0.15

Total time (CPU seconds):       0.15   (Wallclock seconds):       0.15

